Route #1: 8 5 21 13
Route #2: 25
Route #3: 30
Route #4: 20
Route #5: 10
Route #6: 1
Route #7: 27 31 4 22
Route #8: 12 19 6 26
Route #9: 24 29 28 11 17 2 18
Route #10: 23 3 16
Route #11: 14
Route #12: 7 9 15

Cost: 2128.0235372705347
